20 10
31 11 87 61 9 51 35 95 4 65
51 67 35 5 69 76 64 26 30 21
51 24 42 43 84 4 16 52 50 29
69 27 60 87 30 38 97 3 60 70
38 38 29 74 94 4 7 98 36 53
75 37 19 4 11 83 28 11 4 75
87 85 28 98 88 43 90 87 33 58
23 9 78 73 80 71 75 38 34 26
30 15 90 31 19 79 29 57 34 8
65 58 68 54 95 94 11 5 78 29
99 79 26 66 25 30 37 33 5 88
20 61 5 68 99 62 41 72 5 79
80 16 9 55 46 45 61 81 60 54
21 82 53 10 53 84 66 73 70 56
9 38 63 65 3 36 25 73 23 98
21 31 27 60 49 16 53 60 53 28
50 62 33 14 39 56 46 39 48 56
30 6 76 61 78 75 13 29 28 79
88 14 48 98 63 51 13 12 36 17
77 25 94 75 82 19 19 37 52 83
